; Copyright (c) 2026 The RIINA Authors. All rights reserved.
; Copyright (c) 2026 The RIINA Authors.
; Auto-generated from 02_FORMAL/coq/domains/HIPAACompliance.v (21 assertions)
; Generated by scripts/generate-full-stack.py
; Module: HIPAACompliance

(set-logic ALL)
(set-option :produce-models true)

; Role (matches Coq: Inductive Role)
(declare-datatypes ((Role 0)) (((Physician) (Nurse) (Admin) (Patient) (Auditor) (Emergency))))

; PHICategory (matches Coq: Inductive PHICategory)
(declare-datatypes ((PHICategory 0)) (((Demographics) (MedicalHistory) (Diagnosis) (Treatment) (Billing) (Genetic))))

; EncryptionState (matches Coq: Inductive EncryptionState)
(declare-datatypes ((EncryptionState 0)) (((Plaintext) (EncryptedAES128) (EncryptedAES256))))

; TransportSecurity (matches Coq: Inductive TransportSecurity)
(declare-datatypes ((TransportSecurity 0)) (((NoTLS) (TLS12) (TLS13))))

; AuthFactor (matches Coq: Inductive AuthFactor)
(declare-datatypes ((AuthFactor 0)) (((Password) (Token) (Biometric))))

; AuthState (matches Coq: Record AuthState)
(declare-datatypes ((AuthState 0))
  (((mk-auth_state (auth_factors list) (auth_user_id Int) (auth_timestamp Int)))))

; PHIRecord (matches Coq: Record PHIRecord)
(declare-datatypes ((PHIRecord 0))
  (((mk-phi_record (phi_category PHICategory) (phi_patient_id Int) (phi_data Int) (phi_encryption EncryptionState) (phi_consent_documented Bool)))))

; AuditEntry (matches Coq: Record AuditEntry)
(declare-datatypes ((AuditEntry 0))
  (((mk-audit_entry (audit_timestamp Int) (audit_user_id Int) (audit_action Int) (audit_phi_id Int) (audit_success Bool)))))

; DisposalRecord (matches Coq: Record DisposalRecord)
(declare-datatypes ((DisposalRecord 0))
  (((mk-disposal_record (disposal_phi_id Int) (disposal_method Int) (disposal_passes Int) (disposal_verified Bool)))))

; BreachEvent (matches Coq: Record BreachEvent)
(declare-datatypes ((BreachEvent 0))
  (((mk-breach_event (breach_detected_time Int) (breach_occurred_time Int) (breach_user_id Int) (breach_phi_ids list)))))

; Session (matches Coq: Record Session)
(declare-datatypes ((Session 0))
  (((mk-session (session_user_id Int) (session_start_time Int) (session_last_activity Int) (session_is_active Bool)))))

; SystemState (matches Coq: Record SystemState)
(declare-datatypes ((SystemState 0))
  (((mk-system_state (state_phi_records list) (state_audit_log list) (state_active_sessions list) (state_user_roles list) (state_disposals list) (state_current_time Int)))))

; Transmission (matches Coq: Record Transmission)
(declare-datatypes ((Transmission 0))
  (((mk-transmission (trans_phi PHIRecord) (trans_security TransportSecurity) (trans_integrity_hash Int) (trans_verified Bool)))))

; can_access (matches Coq: Definition can_access)
(define-fun can_access ((role Role) (cat PHICategory)) Bool
  true)

; is_hipaa_encrypted (matches Coq: Definition is_hipaa_encrypted)
(define-fun is_hipaa_encrypted ((enc EncryptionState)) Bool
  true)

; is_hipaa_transport (matches Coq: Definition is_hipaa_transport)
(define-fun is_hipaa_transport ((ts TransportSecurity)) Bool
  true)

; session_timeout (matches Coq: Definition session_timeout)
(define-fun session_timeout () Int 300)

; session_expired (matches Coq: Definition session_expired)
(define-fun session_expired () Bool Nat)

; is_mfa (matches Coq: Definition is_mfa)
(define-fun is_mfa ((auth AuthState)) Bool
  Nat)

; is_secure_disposal (matches Coq: Definition is_secure_disposal)
(define-fun is_secure_disposal ((d DisposalRecord)) Bool
  true)

; breach_detection_limit (matches Coq: Definition breach_detection_limit)
(define-fun breach_detection_limit () Int 86400)

; breach_detected_timely (matches Coq: Definition breach_detected_timely)
(define-fun breach_detected_timely ((b BreachEvent)) Bool
  Nat)

; audit_exists_for (matches Coq: Definition audit_exists_for)
(define-fun audit_exists_for () Bool true)

; can_disclose (matches Coq: Definition can_disclose)
(define-fun can_disclose ((phi PHIRecord)) Bool
  (phi_consent_documented phi))

; authorized_modification (matches Coq: Definition authorized_modification)
(define-fun authorized_modification ((role Role) (cat PHICategory)) Bool
  true)

; terminate_session (matches Coq: Definition terminate_session)
(define-fun terminate_session ((s Session)) Session
  true)

; check_and_terminate (matches Coq: Definition check_and_terminate)
(define-fun check_and_terminate ((current_time Int) (s Session)) Session
  true)

; transmission_secure (matches Coq: Definition transmission_secure)
(define-fun transmission_secure ((t Transmission)) Bool
  true)

; COMPLY_001_01 (matches Coq: Theorem COMPLY_001_01)
(assert (= true true)) ; COMPLY_001_01 [untranslatable]

; COMPLY_001_02 (matches Coq: Theorem COMPLY_001_02)
(assert (forall ((ts TransportSecurity)) (=> (= (is_hipaa_transport ts) true) (= ts TLS13)))) ; COMPLY_001_02

; COMPLY_001_03 (matches Coq: Theorem COMPLY_001_03)
(assert (= true true)) ; COMPLY_001_03 [untranslatable]

; COMPLY_001_04 (matches Coq: Theorem COMPLY_001_04)
(assert (= true true)) ; COMPLY_001_04 [untranslatable]

; COMPLY_001_05 (matches Coq: Theorem COMPLY_001_05)
(assert (= true true)) ; COMPLY_001_05 [untranslatable]

; COMPLY_001_06 (matches Coq: Theorem COMPLY_001_06)
(assert (= true true)) ; COMPLY_001_06 [untranslatable]

; COMPLY_001_07 (matches Coq: Theorem COMPLY_001_07)
(assert (= true true)) ; COMPLY_001_07 [untranslatable]

; COMPLY_001_08 (matches Coq: Theorem COMPLY_001_08)
(assert (= true true)) ; COMPLY_001_08 [untranslatable]

; COMPLY_001_09 (matches Coq: Theorem COMPLY_001_09)
(assert (= true true)) ; COMPLY_001_09 [untranslatable]

; COMPLY_001_10 (matches Coq: Theorem COMPLY_001_10)
(assert (= true true)) ; COMPLY_001_10 [untranslatable]

; COMPLY_001_11 (matches Coq: Theorem COMPLY_001_11)
(assert (= true true)) ; COMPLY_001_11 [untranslatable]

; COMPLY_001_12 (matches Coq: Theorem COMPLY_001_12)
(assert (= true true)) ; COMPLY_001_12 [untranslatable]

; COMPLY_001_13 (matches Coq: Theorem COMPLY_001_13)
(assert (= true true)) ; COMPLY_001_13 [untranslatable]

; COMPLY_001_14 (matches Coq: Theorem COMPLY_001_14)
(assert (= true true)) ; COMPLY_001_14 [untranslatable]

; COMPLY_001_15 (matches Coq: Theorem COMPLY_001_15)
(assert (= true true)) ; COMPLY_001_15 [untranslatable]

; COMPLY_001_16 (matches Coq: Theorem COMPLY_001_16)
(assert (forall ((cat PHICategory)) (= (can_access Physician cat) true))) ; COMPLY_001_16

; COMPLY_001_17 (matches Coq: Theorem COMPLY_001_17)
(assert (and (= (can_access Patient Billing) false) (= (can_access Patient MedicalHistory) false) (= (can_access Patient Genetic) false))) ; COMPLY_001_17

; COMPLY_001_18 (matches Coq: Theorem COMPLY_001_18)
(assert (= true true)) ; COMPLY_001_18 [untranslatable]

; COMPLY_001_19 (matches Coq: Theorem COMPLY_001_19)
(assert (= true true)) ; COMPLY_001_19 [untranslatable]

; COMPLY_001_20 (matches Coq: Theorem COMPLY_001_20)
(assert (= true true)) ; COMPLY_001_20 [untranslatable]

; COMPLY_001_21 (matches Coq: Theorem COMPLY_001_21)
(assert (= true true)) ; COMPLY_001_21 [untranslatable]

; Verify all assertions are satisfiable
(check-sat)
(exit)
